10  630
1   6   11    12    15    39    30    50    
2   3   17    34    18    
3   4   41    21    45    1    
4   5   31    36    28    14    4    
5   5   38    44    13    24    35    
6   6   33    46    43    9    23    29    
7   4   48    7    8    20    
8   7   32    27    42    47    40    3    19    
9   7   22    6    37    2    49    10    5    
10   3   16    26    25    

